GLPSOL--GLPK LP/MIP Solver 5.0
Parameter(s) specified in the command line:
 --lp ../modeles/10_234.lp --log 10_234.log
Reading problem data from '../modeles/10_234.lp'...
2381 rows, 4700 columns, 16410 non-zeros
2340 integer variables, all of which are binary
7097 lines were read
GLPK Integer Optimizer 5.0
2381 rows, 4700 columns, 16410 non-zeros
2340 integer variables, all of which are binary
Preprocessing...
2300 constraint coefficient(s) were reduced
2381 rows, 4690 columns, 16400 non-zeros
2340 integer variables, all of which are binary
Scaling...
 A: min|aij| =  2.922e-04  max|aij| =  4.000e+00  ratio =  1.369e+04
GM: min|aij| =  9.245e-02  max|aij| =  1.082e+01  ratio =  1.170e+02
EQ: min|aij| =  8.547e-03  max|aij| =  1.000e+00  ratio =  1.170e+02
2N: min|aij| =  7.812e-03  max|aij| =  1.768e+00  ratio =  2.263e+02
Constructing initial basis...
Size of triangular part is 2381
Solving LP relaxation...
GLPK Simplex Optimizer 5.0
2381 rows, 4690 columns, 16400 non-zeros
      0: obj =   2.000000000e+01 inf =   4.950e+01 (21)
    169: obj =   2.463924305e-01 inf =   0.000e+00 (0)
*   541: obj =  -3.161122661e+00 inf =   0.000e+00 (0)
OPTIMAL LP SOLUTION FOUND
Integer optimization begins...
Long-step dual simplex will be used
+   541: mip =     not found yet >=              -inf        (1; 0)
+   897: >>>>>  -3.161122661e+00 >=  -3.161122661e+00 < 0.1% (352; 0)
+   897: mip =  -3.161122661e+00 >=     tree is empty   0.0% (0; 703)
INTEGER OPTIMAL SOLUTION FOUND
Time used:   1.5 secs
Memory used: 6.9 Mb (7200538 bytes)
